benchmark/forreport/cvc4/qm_neg_2_mo.sl
(set-logic LIA)

(define-fun qm ((a Int) (b Int)) Int
      (ite (< a 0) b a))

(synth-fun qm-foo ((x Int) (y Int) ) Int
    ((Start Int (x y
                 0
                 1
                 (+ Start Start)
                 (- Start Start)
                 (ite StartBool Start Start)))
     (X Int (x))
     (Y Int (y))
     (O Int (0))
     (I Int (1))
     (La Bool ((< X Y)))
     (Lb Bool ((< X O)))
     (Lc Bool ((< X I)))
     (Ld Bool ((< Y X)))
     (Le Bool ((< Y O)))
     (Lf Bool ((< Y I)))
     (Lg Bool ((< O X)))
     (Lh Bool ((< O Y)))
     (Li Bool ((< I X)))
     (Lj Bool ((< I Y)))
     (Lk Bool ((<= X Y)))
     (Ll Bool ((<= X O)))
     (Lm Bool ((<= X I)))
     (Ln Bool ((<= Y X)))
     (Lo Bool ((<= Y O)))
     (Lp Bool ((<= Y I)))
     (Lq Bool ((<= O X)))
     (Lr Bool ((<= O Y)))
     (Ls Bool ((<= I X)))
     (Lt Bool ((<= I Y)))
     (Lu Bool ((= X Y)))
     (Lv Bool ((= X O)))
     (Lw Bool ((= X I)))
     (Lx Bool ((= Y O)))
     (Ly Bool ((= Y I)))
     (StartBoolx Bool ( (and La Lb)
                        (and La Lc)
                        (and La Ld)
                        (and La Le)
                        (and La Lf)
                        (and La Lg)
                        (and La Lh)
                        (and La Li)
                        (and La Lj)
                        (and La Lk)
                        (and La Ll)
                        (and La Lm)
                        (and La Ln)
                        (and La Lo)
                        (and La Lp)
                        (and La Lq)
                        (and La Lr)
                        (and La Ls)
                        (and La Lt)
                        (and La Lu)
                        (and La Lv)
                        (and La Lw)
                        (and La Lx)
                        (and La Ly)
                        (and Lb Lc)
                        (and Lb Ld)
                        (and Lb Le)
                        (and Lb Lf)
                        (and Lb Lg)
                        (and Lb Lh)
                        (and Lb Li)
                        (and Lb Lj)
                        (and Lb Lk)
                        (and Lb Ll)
                        (and Lb Lm)
                        (and Lb Ln)
                        (and Lb Lo)
                        (and Lb Lp)
                        (and Lb Lq)
                        (and Lb Lr)
                        (and Lb Ls)
                        (and Lb Lt)
                        (and Lb Lu)
                        (and Lb Lv)
                        (and Lb Lw)
                        (and Lb Lx)
                        (and Lb Ly)
                        (and Lc Ld)
                        (and Lc Le)
                        (and Lc Lf)
                        (and Lc Lg)
                        (and Lc Lh)
                        (and Lc Li)
                        (and Lc Lj)
                        (and Lc Lk)
                        (and Lc Ll)
                        (and Lc Lm)
                        (and Lc Ln)
                        (and Lc Lo)
                        (and Lc Lp)
                        (and Lc Lq)
                        (and Lc Lr)
                        (and Lc Ls)
                        (and Lc Lt)
                        (and Lc Lu)
                        (and Lc Lv)
                        (and Lc Lw)
                        (and Lc Lx)
                        (and Lc Ly)
                        (and Ld Le)
                        (and Ld Lf)
                        (and Ld Lg)
                        (and Ld Lh)
                        (and Ld Li)
                        (and Ld Lj)
                        (and Ld Lk)
                        (and Ld Ll)
                        (and Ld Lm)
                        (and Ld Ln)
                        (and Ld Lo)
                        (and Ld Lp)
                        (and Ld Lq)
                        (and Ld Lr)
                        (and Ld Ls)
                        (and Ld Lt)
                        (and Ld Lu)
                        (and Ld Lv)
                        (and Ld Lw)
                        (and Ld Lx)
                        (and Ld Ly)
                        (and Le Lf)
                        (and Le Lg)
                        (and Le Lh)
                        (and Le Li)
                        (and Le Lj)
                        (and Le Lk)
                        (and Le Ll)
                        (and Le Lm)
                        (and Le Ln)
                        (and Le Lo)
                        (and Le Lp)
                        (and Le Lq)
                        (and Le Lr)
                        (and Le Ls)
                        (and Le Lt)
                        (and Le Lu)
                        (and Le Lv)
                        (and Le Lw)
                        (and Le Lx)
                        (and Le Ly)
                        (and Lf Lg)
                        (and Lf Lh)
                        (and Lf Li)
                        (and Lf Lj)
                        (and Lf Lk)
                        (and Lf Ll)
                        (and Lf Lm)
                        (and Lf Ln)
                        (and Lf Lo)
                        (and Lf Lp)
                        (and Lf Lq)
                        (and Lf Lr)
                        (and Lf Ls)
                        (and Lf Lt)
                        (and Lf Lu)
                        (and Lf Lv)
                        (and Lf Lw)
                        (and Lf Lx)
                        (and Lf Ly)
                        (and Lg Lh)
                        (and Lg Li)
                        (and Lg Lj)
                        (and Lg Lk)
                        (and Lg Ll)
                        (and Lg Lm)
                        (and Lg Ln)
                        (and Lg Lo)
                        (and Lg Lp)
                        (and Lg Lq)
                        (and Lg Lr)
                        (and Lg Ls)
                        (and Lg Lt)
                        (and Lg Lu)
                        (and Lg Lv)
                        (and Lg Lw)
                        (and Lg Lx)
                        (and Lg Ly)
                        (and Lh Li)
                        (and Lh Lj)
                        (and Lh Lk)
                        (and Lh Ll)
                        (and Lh Lm)
                        (and Lh Ln)
                        (and Lh Lo)
                        (and Lh Lp)
                        (and Lh Lq)
                        (and Lh Lr)
                        (and Lh Ls)
                        (and Lh Lt)
                        (and Lh Lu)
                        (and Lh Lv)
                        (and Lh Lw)
                        (and Lh Lx)
                        (and Lh Ly)
                        (and Li Lj)
                        (and Li Lk)
                        (and Li Ll)
                        (and Li Lm)
                        (and Li Ln)
                        (and Li Lo)
                        (and Li Lp)
                        (and Li Lq)
                        (and Li Lr)
                        (and Li Ls)
                        (and Li Lt)
                        (and Li Lu)
                        (and Li Lv)
                        (and Li Lw)
                        (and Li Lx)
                        (and Li Ly)
                        (and Lj Lk)
                        (and Lj Ll)
                        (and Lj Lm)
                        (and Lj Ln)
                        (and Lj Lo)
                        (and Lj Lp)
                        (and Lj Lq)
                        (and Lj Lr)
                        (and Lj Ls)
                        (and Lj Lt)
                        (and Lj Lu)
                        (and Lj Lv)
                        (and Lj Lw)
                        (and Lj Lx)
                        (and Lj Ly)
                        (and Lk Ll)
                        (and Lk Lm)
                        (and Lk Ln)
                        (and Lk Lo)
                        (and Lk Lp)
                        (and Lk Lq)
                        (and Lk Lr)
                        (and Lk Ls)
                        (and Lk Lt)
                        (and Lk Lu)
                        (and Lk Lv)
                        (and Lk Lw)
                        (and Lk Lx)
                        (and Lk Ly)
                        (and Ll Lm)
                        (and Ll Ln)
                        (and Ll Lo)
                        (and Ll Lp)
                        (and Ll Lq)
                        (and Ll Lr)
                        (and Ll Ls)
                        (and Ll Lt)
                        (and Ll Lu)
                        (and Ll Lv)
                        (and Ll Lw)
                        (and Ll Lx)
                        (and Ll Ly)
                        (and Lm Ln)
                        (and Lm Lo)
                        (and Lm Lp)
                        (and Lm Lq)
                        (and Lm Lr)
                        (and Lm Ls)
                        (and Lm Lt)
                        (and Lm Lu)
                        (and Lm Lv)
                        (and Lm Lw)
                        (and Lm Lx)
                        (and Lm Ly)
                        (and Ln Lo)
                        (and Ln Lp)
                        (and Ln Lq)
                        (and Ln Lr)
                        (and Ln Ls)
                        (and Ln Lt)
                        (and Ln Lu)
                        (and Ln Lv)
                        (and Ln Lw)
                        (and Ln Lx)
                        (and Ln Ly)
                        (and Lo Lp)
                        (and Lo Lq)
                        (and Lo Lr)
                        (and Lo Ls)
                        (and Lo Lt)
                        (and Lo Lu)
                        (and Lo Lv)
                        (and Lo Lw)
                        (and Lo Lx)
                        (and Lo Ly)
                        (and Lp Lq)
                        (and Lp Lr)
                        (and Lp Ls)
                        (and Lp Lt)
                        (and Lp Lu)
                        (and Lp Lv)
                        (and Lp Lw)
                        (and Lp Lx)
                        (and Lp Ly)
                        (and Lq Lr)
                        (and Lq Ls)
                        (and Lq Lt)
                        (and Lq Lu)
                        (and Lq Lv)
                        (and Lq Lw)
                        (and Lq Lx)
                        (and Lq Ly)
                        (and Lr Ls)
                        (and Lr Lt)
                        (and Lr Lu)
                        (and Lr Lv)
                        (and Lr Lw)
                        (and Lr Lx)
                        (and Lr Ly)
                        (and Ls Lt)
                        (and Ls Lu)
                        (and Ls Lv)
                        (and Ls Lw)
                        (and Ls Lx)
                        (and Ls Ly)
                        (and Lt Lu)
                        (and Lt Lv)
                        (and Lt Lw)
                        (and Lt Lx)
                        (and Lt Ly)
                        (and Lu Lv)
                        (and Lu Lw)
                        (and Lu Lx)
                        (and Lu Ly)
                        (and Lv Lw)
                        (and Lv Lx)
                        (and Lv Ly)
                        (and Lw Lx)
                        (and Lw Ly)
                        (and Lx Ly)
                        (or La Lb)
                        (or La Lc)
                        (or La Ld)
                        (or La Le)
                        (or La Lf)
                        (or La Lg)
                        (or La Lh)
                        (or La Li)
                        (or La Lj)
                        (or La Lk)
                        (or La Ll)
                        (or La Lm)
                        (or La Ln)
                        (or La Lo)
                        (or La Lp)
                        (or La Lq)
                        (or La Lr)
                        (or La Ls)
                        (or La Lt)
                        (or La Lu)
                        (or La Lv)
                        (or La Lw)
                        (or La Lx)
                        (or La Ly)
                        (or Lb Lc)
                        (or Lb Ld)
                        (or Lb Le)
                        (or Lb Lf)
                        (or Lb Lg)
                        (or Lb Lh)
                        (or Lb Li)
                        (or Lb Lj)
                        (or Lb Lk)
                        (or Lb Ll)
                        (or Lb Lm)
                        (or Lb Ln)
                        (or Lb Lo)
                        (or Lb Lp)
                        (or Lb Lq)
                        (or Lb Lr)
                        (or Lb Ls)
                        (or Lb Lt)
                        (or Lb Lu)
                        (or Lb Lv)
                        (or Lb Lw)
                        (or Lb Lx)
                        (or Lb Ly)
                        (or Lc Ld)
                        (or Lc Le)
                        (or Lc Lf)
                        (or Lc Lg)
                        (or Lc Lh)
                        (or Lc Li)
                        (or Lc Lj)
                        (or Lc Lk)
                        (or Lc Ll)
                        (or Lc Lm)
                        (or Lc Ln)
                        (or Lc Lo)
                        (or Lc Lp)
                        (or Lc Lq)
                        (or Lc Lr)
                        (or Lc Ls)
                        (or Lc Lt)
                        (or Lc Lu)
                        (or Lc Lv)
                        (or Lc Lw)
                        (or Lc Lx)
                        (or Lc Ly)
                        (or Ld Le)
                        (or Ld Lf)
                        (or Ld Lg)
                        (or Ld Lh)
                        (or Ld Li)
                        (or Ld Lj)
                        (or Ld Lk)
                        (or Ld Ll)
                        (or Ld Lm)
                        (or Ld Ln)
                        (or Ld Lo)
                        (or Ld Lp)
                        (or Ld Lq)
                        (or Ld Lr)
                        (or Ld Ls)
                        (or Ld Lt)
                        (or Ld Lu)
                        (or Ld Lv)
                        (or Ld Lw)
                        (or Ld Lx)
                        (or Ld Ly)
                        (or Le Lf)
                        (or Le Lg)
                        (or Le Lh)
                        (or Le Li)
                        (or Le Lj)
                        (or Le Lk)
                        (or Le Ll)
                        (or Le Lm)
                        (or Le Ln)
                        (or Le Lo)
                        (or Le Lp)
                        (or Le Lq)
                        (or Le Lr)
                        (or Le Ls)
                        (or Le Lt)
                        (or Le Lu)
                        (or Le Lv)
                        (or Le Lw)
                        (or Le Lx)
                        (or Le Ly)
                        (or Lf Lg)
                        (or Lf Lh)
                        (or Lf Li)
                        (or Lf Lj)
                        (or Lf Lk)
                        (or Lf Ll)
                        (or Lf Lm)
                        (or Lf Ln)
                        (or Lf Lo)
                        (or Lf Lp)
                        (or Lf Lq)
                        (or Lf Lr)
                        (or Lf Ls)
                        (or Lf Lt)
                        (or Lf Lu)
                        (or Lf Lv)
                        (or Lf Lw)
                        (or Lf Lx)
                        (or Lf Ly)
                        (or Lg Lh)
                        (or Lg Li)
                        (or Lg Lj)
                        (or Lg Lk)
                        (or Lg Ll)
                        (or Lg Lm)
                        (or Lg Ln)
                        (or Lg Lo)
                        (or Lg Lp)
                        (or Lg Lq)
                        (or Lg Lr)
                        (or Lg Ls)
                        (or Lg Lt)
                        (or Lg Lu)
                        (or Lg Lv)
                        (or Lg Lw)
                        (or Lg Lx)
                        (or Lg Ly)
                        (or Lh Li)
                        (or Lh Lj)
                        (or Lh Lk)
                        (or Lh Ll)
                        (or Lh Lm)
                        (or Lh Ln)
                        (or Lh Lo)
                        (or Lh Lp)
                        (or Lh Lq)
                        (or Lh Lr)
                        (or Lh Ls)
                        (or Lh Lt)
                        (or Lh Lu)
                        (or Lh Lv)
                        (or Lh Lw)
                        (or Lh Lx)
                        (or Lh Ly)
                        (or Li Lj)
                        (or Li Lk)
                        (or Li Ll)
                        (or Li Lm)
                        (or Li Ln)
                        (or Li Lo)
                        (or Li Lp)
                        (or Li Lq)
                        (or Li Lr)
                        (or Li Ls)
                        (or Li Lt)
                        (or Li Lu)
                        (or Li Lv)
                        (or Li Lw)
                        (or Li Lx)
                        (or Li Ly)
                        (or Lj Lk)
                        (or Lj Ll)
                        (or Lj Lm)
                        (or Lj Ln)
                        (or Lj Lo)
                        (or Lj Lp)
                        (or Lj Lq)
                        (or Lj Lr)
                        (or Lj Ls)
                        (or Lj Lt)
                        (or Lj Lu)
                        (or Lj Lv)
                        (or Lj Lw)
                        (or Lj Lx)
                        (or Lj Ly)
                        (or Lk Ll)
                        (or Lk Lm)
                        (or Lk Ln)
                        (or Lk Lo)
                        (or Lk Lp)
                        (or Lk Lq)
                        (or Lk Lr)
                        (or Lk Ls)
                        (or Lk Lt)
                        (or Lk Lu)
                        (or Lk Lv)
                        (or Lk Lw)
                        (or Lk Lx)
                        (or Lk Ly)
                        (or Ll Lm)
                        (or Ll Ln)
                        (or Ll Lo)
                        (or Ll Lp)
                        (or Ll Lq)
                        (or Ll Lr)
                        (or Ll Ls)
                        (or Ll Lt)
                        (or Ll Lu)
                        (or Ll Lv)
                        (or Ll Lw)
                        (or Ll Lx)
                        (or Ll Ly)
                        (or Lm Ln)
                        (or Lm Lo)
                        (or Lm Lp)
                        (or Lm Lq)
                        (or Lm Lr)
                        (or Lm Ls)
                        (or Lm Lt)
                        (or Lm Lu)
                        (or Lm Lv)
                        (or Lm Lw)
                        (or Lm Lx)
                        (or Lm Ly)
                        (or Ln Lo)
                        (or Ln Lp)
                        (or Ln Lq)
                        (or Ln Lr)
                        (or Ln Ls)
                        (or Ln Lt)
                        (or Ln Lu)
                        (or Ln Lv)
                        (or Ln Lw)
                        (or Ln Lx)
                        (or Ln Ly)
                        (or Lo Lp)
                        (or Lo Lq)
                        (or Lo Lr)
                        (or Lo Ls)
                        (or Lo Lt)
                        (or Lo Lu)
                        (or Lo Lv)
                        (or Lo Lw)
                        (or Lo Lx)
                        (or Lo Ly)
                        (or Lp Lq)
                        (or Lp Lr)
                        (or Lp Ls)
                        (or Lp Lt)
                        (or Lp Lu)
                        (or Lp Lv)
                        (or Lp Lw)
                        (or Lp Lx)
                        (or Lp Ly)
                        (or Lq Lr)
                        (or Lq Ls)
                        (or Lq Lt)
                        (or Lq Lu)
                        (or Lq Lv)
                        (or Lq Lw)
                        (or Lq Lx)
                        (or Lq Ly)
                        (or Lr Ls)
                        (or Lr Lt)
                        (or Lr Lu)
                        (or Lr Lv)
                        (or Lr Lw)
                        (or Lr Lx)
                        (or Lr Ly)
                        (or Ls Lt)
                        (or Ls Lu)
                        (or Ls Lv)
                        (or Ls Lw)
                        (or Ls Lx)
                        (or Ls Ly)
                        (or Lt Lu)
                        (or Lt Lv)
                        (or Lt Lw)
                        (or Lt Lx)
                        (or Lt Ly)
                        (or Lu Lv)
                        (or Lu Lw)
                        (or Lu Lx)
                        (or Lu Ly)
                        (or Lv Lw)
                        (or Lv Lx)
                        (or Lv Ly)
                        (or Lw Lx)
                        (or Lw Ly)
                        (or Lx Ly)
                        (not StartBool)
                        ))
     (StartBool Bool (StartBoolx
                      (and StartBoolx StartBool)
                      (or  StartBoolx StartBool)
                      (not StartBool)
                      (<  Start Start)
                      (=   Start Start)
                      (<=  Start Start)))))


(declare-var x Int)
(declare-var y Int)

(constraint (= (qm-foo x y)  
                (ite (and (< x 0)  (< y 0) ) 1 0))) 

(check-synth)
