benchmark/obecase/tmp/qm_neg_2_mo.out
6 {qm-foo:ite(&&(<(Param0,0),<(Param1,0)),1,0)}
0.4957470000
